param n := 60;
param c := 10000
param : V : p w :=
   0	  90	 496
   1	   4	 250
   2	  97	 254
   3	  30	 396
   4	  38	 270
   5	  49	 334
   6	  15	 483
   7	  23	 252
   8	  39	 265
   9	  18	 463
  10	  28	 261
  11	  74	 276
  12	  27	 389
  13	  40	 283
  14	  48	 328
  15	  49	 380
  16	  63	 268
  17	  60	 352
  18	  33	 416
  19	  61	 282
  20	  82	 302
  21	  10	 388
  22	  54	 252
  23	  91	 360
  24	  79	 489
  25	  81	 252
  26	  86	 259
  27	   1	 433
  28	   6	 281
  29	   8	 286
  30	  56	 380
  31	  88	 285
  32	  41	 335
  33	   3	 372
  34	  82	 301
  35	  88	 327
  36	  76	 372
  37	  67	 281
  38	  25	 347
  39	  71	 355
  40	  99	 305
  41	  50	 340
  42	   9	 432
  43	  87	 278
  44	  81	 290
  45	  35	 462
  46	  71	 262
  47	  73	 276
  48	  11	 484
  49	  56	 252
  50	  81	 264
  51	  35	 422
  52	  27	 282
  53	  79	 296
  54	  20	 469
  55	  71	 262
  56	  45	 269
  57	  73	 358
  58	  26	 281
  59	  96	 361
;

set E :=
   0	   2
   0	   3
   0	   4
   0	   6
   0	   8
   0	   9
   0	  11
   0	  13
   0	  14
   0	  15
   0	  17
   0	  18
   0	  21
   0	  22
   0	  23
   0	  25
   0	  26
   0	  28
   0	  30
   0	  31
   0	  33
   0	  34
   0	  35
   0	  38
   0	  39
   0	  40
   0	  41
   0	  42
   0	  43
   0	  45
   0	  47
   0	  50
   0	  53
   0	  55
   0	  56
   0	  58
   0	  59
   1	   2
   1	   4
   1	   6
   1	   7
   1	   9
   1	  11
   1	  12
   1	  13
   1	  14
   1	  15
   1	  16
   1	  17
   1	  19
   1	  20
   1	  21
   1	  22
   1	  25
   1	  27
   1	  28
   1	  29
   1	  30
   1	  31
   1	  34
   1	  37
   1	  39
   1	  40
   1	  41
   1	  42
   1	  43
   1	  45
   1	  47
   1	  48
   1	  49
   1	  50
   1	  52
   1	  53
   1	  54
   1	  57
   1	  58
   2	   3
   2	   4
   2	   5
   2	   7
   2	   8
   2	   9
   2	  11
   2	  14
   2	  16
   2	  17
   2	  18
   2	  21
   2	  22
   2	  23
   2	  24
   2	  25
   2	  26
   2	  28
   2	  30
   2	  31
   2	  35
   2	  39
   2	  41
   2	  42
   2	  45
   2	  46
   2	  50
   2	  52
   2	  53
   2	  54
   2	  55
   2	  56
   2	  57
   2	  58
   2	  59
   3	   4
   3	   5
   3	   9
   3	  10
   3	  11
   3	  12
   3	  13
   3	  16
   3	  18
   3	  19
   3	  21
   3	  22
   3	  23
   3	  24
   3	  29
   3	  30
   3	  31
   3	  32
   3	  33
   3	  34
   3	  36
   3	  38
   3	  39
   3	  41
   3	  44
   3	  45
   3	  47
   3	  48
   3	  49
   3	  52
   3	  53
   3	  54
   3	  56
   3	  58
   4	   7
   4	   9
   4	  11
   4	  13
   4	  15
   4	  18
   4	  20
   4	  21
   4	  22
   4	  23
   4	  25
   4	  27
   4	  31
   4	  32
   4	  35
   4	  36
   4	  38
   4	  40
   4	  41
   4	  42
   4	  43
   4	  44
   4	  46
   4	  47
   4	  49
   4	  50
   4	  54
   4	  56
   4	  58
   4	  59
   5	   9
   5	  12
   5	  14
   5	  15
   5	  19
   5	  20
   5	  21
   5	  26
   5	  27
   5	  29
   5	  30
   5	  31
   5	  33
   5	  34
   5	  35
   5	  36
   5	  37
   5	  39
   5	  41
   5	  42
   5	  43
   5	  44
   5	  45
   5	  47
   5	  48
   5	  49
   5	  51
   5	  53
   5	  54
   5	  56
   5	  57
   5	  58
   6	   8
   6	   9
   6	  11
   6	  12
   6	  14
   6	  16
   6	  19
   6	  20
   6	  24
   6	  27
   6	  28
   6	  29
   6	  30
   6	  31
   6	  32
   6	  34
   6	  37
   6	  38
   6	  39
   6	  40
   6	  41
   6	  42
   6	  43
   6	  45
   6	  47
   6	  48
   6	  50
   6	  52
   6	  53
   6	  54
   6	  55
   6	  56
   6	  59
   7	   9
   7	  10
   7	  11
   7	  12
   7	  14
   7	  16
   7	  17
   7	  20
   7	  22
   7	  24
   7	  26
   7	  27
   7	  28
   7	  29
   7	  30
   7	  34
   7	  37
   7	  38
   7	  39
   7	  41
   7	  43
   7	  45
   7	  49
   7	  54
   7	  56
   7	  57
   7	  59
   8	   9
   8	  13
   8	  14
   8	  16
   8	  17
   8	  18
   8	  20
   8	  21
   8	  24
   8	  25
   8	  26
   8	  28
   8	  31
   8	  34
   8	  37
   8	  38
   8	  40
   8	  41
   8	  42
   8	  44
   8	  47
   8	  48
   8	  49
   8	  50
   8	  53
   8	  55
   8	  57
   8	  59
   9	  10
   9	  11
   9	  12
   9	  13
   9	  14
   9	  15
   9	  18
   9	  19
   9	  20
   9	  21
   9	  22
   9	  23
   9	  24
   9	  26
   9	  32
   9	  35
   9	  36
   9	  38
   9	  40
   9	  41
   9	  42
   9	  43
   9	  45
   9	  47
   9	  48
   9	  49
   9	  50
   9	  51
   9	  53
   9	  55
   9	  56
   9	  59
  10	  11
  10	  13
  10	  14
  10	  15
  10	  16
  10	  17
  10	  18
  10	  19
  10	  20
  10	  21
  10	  23
  10	  26
  10	  27
  10	  28
  10	  29
  10	  30
  10	  32
  10	  34
  10	  36
  10	  37
  10	  38
  10	  39
  10	  42
  10	  43
  10	  44
  10	  45
  10	  46
  10	  47
  10	  48
  10	  50
  10	  54
  10	  57
  10	  58
  10	  59
  11	  13
  11	  14
  11	  17
  11	  18
  11	  19
  11	  20
  11	  22
  11	  23
  11	  24
  11	  28
  11	  30
  11	  31
  11	  32
  11	  34
  11	  36
  11	  37
  11	  40
  11	  42
  11	  43
  11	  44
  11	  46
  11	  47
  11	  48
  11	  50
  11	  51
  11	  52
  11	  53
  11	  54
  11	  55
  11	  56
  11	  57
  11	  59
  12	  16
  12	  19
  12	  21
  12	  22
  12	  23
  12	  26
  12	  27
  12	  28
  12	  30
  12	  31
  12	  33
  12	  34
  12	  35
  12	  36
  12	  38
  12	  39
  12	  40
  12	  42
  12	  43
  12	  44
  12	  45
  12	  47
  12	  49
  12	  51
  12	  54
  12	  56
  12	  57
  12	  58
  13	  14
  13	  15
  13	  17
  13	  19
  13	  20
  13	  21
  13	  22
  13	  23
  13	  24
  13	  25
  13	  26
  13	  28
  13	  32
  13	  33
  13	  34
  13	  36
  13	  38
  13	  39
  13	  41
  13	  42
  13	  45
  13	  46
  13	  47
  13	  48
  13	  50
  13	  51
  13	  52
  13	  53
  13	  55
  13	  58
  14	  17
  14	  23
  14	  24
  14	  25
  14	  26
  14	  27
  14	  28
  14	  29
  14	  32
  14	  33
  14	  36
  14	  38
  14	  41
  14	  42
  14	  43
  14	  44
  14	  47
  14	  48
  14	  50
  14	  53
  14	  54
  14	  55
  14	  56
  14	  59
  15	  16
  15	  17
  15	  19
  15	  20
  15	  21
  15	  22
  15	  23
  15	  26
  15	  27
  15	  30
  15	  32
  15	  33
  15	  34
  15	  35
  15	  37
  15	  40
  15	  41
  15	  43
  15	  44
  15	  45
  15	  49
  15	  53
  15	  54
  15	  55
  15	  56
  15	  57
  15	  58
  16	  17
  16	  19
  16	  21
  16	  23
  16	  24
  16	  26
  16	  29
  16	  30
  16	  31
  16	  32
  16	  34
  16	  35
  16	  36
  16	  39
  16	  40
  16	  41
  16	  48
  16	  49
  16	  51
  16	  53
  16	  54
  16	  55
  16	  59
  17	  19
  17	  20
  17	  21
  17	  22
  17	  24
  17	  27
  17	  28
  17	  29
  17	  30
  17	  31
  17	  34
  17	  35
  17	  36
  17	  37
  17	  40
  17	  43
  17	  44
  17	  45
  17	  46
  17	  49
  17	  50
  17	  51
  17	  52
  17	  55
  17	  56
  17	  59
  18	  19
  18	  20
  18	  22
  18	  23
  18	  24
  18	  25
  18	  26
  18	  28
  18	  29
  18	  30
  18	  33
  18	  35
  18	  37
  18	  38
  18	  42
  18	  43
  18	  46
  18	  47
  18	  48
  18	  49
  18	  50
  18	  51
  18	  53
  18	  54
  18	  56
  18	  58
  18	  59
  19	  20
  19	  22
  19	  23
  19	  25
  19	  27
  19	  30
  19	  32
  19	  33
  19	  38
  19	  39
  19	  40
  19	  41
  19	  42
  19	  46
  19	  47
  19	  48
  19	  52
  19	  53
  19	  56
  20	  23
  20	  24
  20	  25
  20	  26
  20	  27
  20	  28
  20	  29
  20	  31
  20	  32
  20	  33
  20	  35
  20	  37
  20	  39
  20	  40
  20	  42
  20	  43
  20	  45
  20	  47
  20	  48
  20	  51
  20	  52
  20	  53
  20	  56
  20	  58
  21	  22
  21	  23
  21	  25
  21	  26
  21	  28
  21	  29
  21	  31
  21	  33
  21	  34
  21	  35
  21	  39
  21	  41
  21	  42
  21	  43
  21	  44
  21	  46
  21	  47
  21	  48
  21	  49
  21	  50
  21	  51
  21	  52
  21	  53
  21	  54
  21	  56
  21	  57
  21	  58
  21	  59
  22	  23
  22	  24
  22	  26
  22	  27
  22	  28
  22	  29
  22	  30
  22	  32
  22	  33
  22	  34
  22	  35
  22	  38
  22	  39
  22	  43
  22	  44
  22	  45
  22	  46
  22	  48
  22	  50
  22	  51
  22	  55
  22	  57
  22	  58
  23	  25
  23	  26
  23	  27
  23	  28
  23	  30
  23	  31
  23	  32
  23	  33
  23	  34
  23	  35
  23	  36
  23	  37
  23	  38
  23	  41
  23	  47
  23	  50
  23	  53
  23	  56
  23	  58
  23	  59
  24	  25
  24	  29
  24	  30
  24	  31
  24	  32
  24	  33
  24	  35
  24	  36
  24	  37
  24	  38
  24	  39
  24	  40
  24	  41
  24	  42
  24	  43
  24	  44
  24	  45
  24	  46
  24	  47
  24	  52
  24	  54
  24	  55
  24	  56
  24	  58
  24	  59
  25	  28
  25	  30
  25	  31
  25	  34
  25	  35
  25	  36
  25	  38
  25	  39
  25	  41
  25	  42
  25	  43
  25	  45
  25	  46
  25	  48
  25	  50
  25	  52
  25	  55
  25	  56
  25	  58
  26	  28
  26	  29
  26	  30
  26	  32
  26	  33
  26	  35
  26	  36
  26	  39
  26	  40
  26	  41
  26	  42
  26	  43
  26	  44
  26	  45
  26	  46
  26	  48
  26	  50
  26	  51
  26	  54
  26	  55
  26	  56
  27	  28
  27	  30
  27	  32
  27	  33
  27	  35
  27	  37
  27	  40
  27	  44
  27	  45
  27	  46
  27	  47
  27	  48
  27	  49
  27	  50
  27	  51
  27	  52
  27	  54
  27	  55
  27	  57
  27	  59
  28	  29
  28	  30
  28	  31
  28	  32
  28	  33
  28	  34
  28	  35
  28	  36
  28	  37
  28	  39
  28	  44
  28	  47
  28	  52
  28	  53
  28	  54
  28	  55
  28	  57
  28	  58
  29	  31
  29	  32
  29	  33
  29	  35
  29	  36
  29	  39
  29	  40
  29	  41
  29	  44
  29	  46
  29	  47
  29	  48
  29	  50
  29	  51
  29	  52
  29	  55
  29	  57
  29	  58
  30	  33
  30	  34
  30	  35
  30	  36
  30	  38
  30	  39
  30	  40
  30	  44
  30	  45
  30	  46
  30	  47
  30	  48
  30	  53
  30	  54
  30	  55
  30	  57
  30	  58
  31	  33
  31	  34
  31	  38
  31	  40
  31	  41
  31	  42
  31	  43
  31	  45
  31	  46
  31	  47
  31	  48
  31	  49
  31	  50
  31	  52
  31	  53
  31	  54
  31	  57
  31	  58
  31	  59
  32	  33
  32	  34
  32	  35
  32	  36
  32	  37
  32	  39
  32	  44
  32	  45
  32	  46
  32	  53
  32	  55
  32	  56
  32	  58
  32	  59
  33	  39
  33	  41
  33	  43
  33	  44
  33	  46
  33	  47
  33	  50
  33	  52
  33	  53
  33	  55
  33	  56
  33	  57
  33	  58
  33	  59
  34	  35
  34	  36
  34	  42
  34	  43
  34	  45
  34	  47
  34	  48
  34	  50
  34	  55
  34	  56
  34	  59
  35	  36
  35	  37
  35	  38
  35	  39
  35	  43
  35	  44
  35	  45
  35	  46
  35	  47
  35	  48
  35	  49
  35	  50
  35	  51
  35	  52
  35	  53
  35	  54
  35	  55
  35	  56
  35	  57
  36	  37
  36	  38
  36	  39
  36	  40
  36	  41
  36	  46
  36	  47
  36	  49
  36	  50
  36	  51
  36	  53
  36	  55
  36	  56
  36	  57
  36	  58
  36	  59
  37	  38
  37	  39
  37	  40
  37	  42
  37	  43
  37	  45
  37	  47
  37	  48
  37	  49
  37	  50
  37	  52
  37	  53
  37	  54
  37	  56
  37	  58
  38	  39
  38	  40
  38	  41
  38	  42
  38	  45
  38	  47
  38	  51
  38	  52
  38	  53
  38	  55
  38	  56
  38	  57
  38	  58
  39	  41
  39	  43
  39	  45
  39	  46
  39	  49
  39	  51
  39	  52
  39	  53
  39	  55
  39	  56
  39	  57
  40	  41
  40	  43
  40	  44
  40	  51
  40	  52
  40	  53
  40	  54
  40	  55
  40	  56
  40	  57
  40	  58
  40	  59
  41	  44
  41	  45
  41	  46
  41	  48
  41	  50
  41	  53
  41	  54
  41	  55
  41	  56
  41	  57
  42	  45
  42	  48
  42	  49
  42	  50
  42	  52
  42	  55
  42	  56
  42	  57
  43	  46
  43	  48
  43	  50
  43	  51
  43	  52
  43	  54
  43	  56
  43	  58
  43	  59
  44	  46
  44	  47
  44	  48
  44	  49
  44	  53
  44	  56
  44	  57
  45	  46
  45	  47
  45	  49
  45	  50
  45	  52
  45	  53
  45	  55
  45	  56
  45	  58
  45	  59
  46	  48
  46	  49
  46	  51
  46	  52
  46	  53
  46	  54
  46	  55
  46	  58
  46	  59
  47	  48
  47	  50
  47	  51
  47	  55
  47	  57
  47	  58
  48	  51
  48	  52
  48	  53
  48	  54
  48	  55
  48	  56
  48	  57
  49	  50
  49	  52
  49	  53
  49	  54
  49	  55
  49	  56
  49	  58
  49	  59
  50	  53
  50	  54
  50	  55
  50	  56
  50	  57
  50	  59
  51	  52
  51	  53
  51	  54
  51	  55
  51	  56
  51	  58
  51	  59
  52	  53
  52	  54
  52	  55
  52	  57
  52	  59
  53	  54
  53	  55
  53	  56
  53	  57
  53	  59
  54	  57
  55	  56
  55	  57
  55	  58
  56	  58
  56	  59
  57	  58
  57	  59
  58	  59
;
